p cnf 6 27
4 0
3 0
5 0
-6 -5 5 -1 0
1 -1 0
6 -1 0
-5 -2 -1 0
5 0
-6 2 5 0
-6 3 -3 6 0
-6 3 -3 0
-6 4 -3 6 0
-6 -4 5 -2 0
-2 0
-6 0
-4 0
1 4 -3 6 0
-6 -5 -1 6 0
-6 2 4 -5 0
2 6 0
-4 -2 6 0
1 5 -3 6 0
4 0
4 -3 0
-3 6 0
1 -6 3 -4 0
2 -6 -3 -1 0
